c --- [ banner ] -------------------------------------------------------------
c 
c CaDiCaL Radically Simplified CDCL SAT Solver
c Copyright (c) 2016-2021 A. Biere, M. Fleury, N. Froleyks
c 
c Version 1.5.2 9c38a080b32c28d805e8e6ca21849856b0cda605
c g++ (Ubuntu 7.5.0-3ubuntu1~18.04) 7.5.0 -Wall -Wextra -O3 -DNDEBUG
c Wed Feb 16 23:15:36 EST 2022 Linux fac-vanhoeve01 5.4.0-99-generic x86_64
c 
c --- [ parsing input ] ------------------------------------------------------
c 
c reading DIMACS file from '<stdin>' (use '-h' for a list of common options)
c found 'p cnf 2692 7976' header
c parsed 7976 clauses in 0.00 seconds process time
c disconnecting from '<stdin>'
c after reading 106558 bytes 0.1 MB
c 
c --- [ options ] ------------------------------------------------------------
c 
c all options are set to their default value
c 
c --- [ solving ] ------------------------------------------------------------
c 
c time measured in process time since initialization
c 
c  seconds  reductions  redundant irredundant
c         MB    restarts       trail    variables
c          level   conflicts       glue      remaining
c 
c *  0.00  5  0 0   0    0    0  0% 0 7974 2618 97%
c {  0.01  5  0 0   0    0    0  0% 0 7974 2618 97%
c -  0.02  5 46 1  34  302  284 67% 8 7902 2618 97%
c -  0.06  5 32 2  79  903  747 82% 8 7902 2618 97%
c }  0.07  5 32 2 100 1001  840 82% 8 7902 2618 97%
c [  0.07  5  0 2 100 1001  840  0% 0 7902 2618 97%
c O  0.07  5 15 2 100 1002  841 93% 7 7902 2618 97%
c -  0.12  6 17 3 100 1805 1083 93% 13 7902 2618 97%
c ]  0.19  6 18 3 101 3001 1976 93% 14 7902 2618 97%
c {  0.19  6 32 3 101 3001 1976 82% 8 7902 2618 97%
c F  0.19  6 32 3 102 3003 1978 82% 8 7902 2618 97%
c -  0.19  6 32 4 103 3005 1389 82% 8 7902 2618 97%
c s  0.21  6 31 4 140 3215 1588 83% 8 7902 2618 97%
c e  0.23  6 31 4 140 3215   57 83% 8 5684 885 33%
c s  0.24  6 31 4 140 3215   50 83% 8 5684 885 33%
c -  0.30  6 26 5 312 4506 1254 85% 9 5684 885 33%
c 2  0.32  6 25 5 351 5000 1707 84% 9 5684 885 33%
c p  0.32  6 25 5 351 5000 1713 84% 9 5684 885 33%
c #  0.37  6 24 5 492 6004 2666 84% 9 5684 885 33%
c -  0.39  6 24 6 539 6306 2225 84% 10 5684 885 33%
c 
c  seconds  reductions  redundant  irredundant
c         MB    restarts       trail     variables
c          level   conflicts       glue      remaining
c 
c }  0.42  6 23 6 613 7001 2872 83% 10 5684 885 33%
c [  0.42  6 18 6 613 7001 2872 283% 14 5684 885 33%
c -  0.49  7 17 7 614 8406 2819 203% 12 5684 885 33%
c I  0.58  7 17 7 615 10005 4342 166% 12 5684 885 33%
c -  0.62  7 20 8 616 10807 3327 156% 14 5684 885 33%
c -  0.78  7 23 9 618 13509 3315 135% 17 5684 885 33%
c s  0.81  7 23 9 618 13948 3621 132% 17 5684 885 33%
c w  0.82  7 23 9 618 13948 3619 132% 17 5684 885 33%
c s  0.83  7 23 9 618 13948 3619 132% 17 5684 885 33%
c ^  0.83  7 23 9 618 13948 3619 132% 17 5684 885 33%
c ]  0.89  7 23 9 618 15001 4428 128% 17 5684 885 33%
c {  0.89  7 23 9 618 15001 4428 83% 10 5684 885 33%
c p  0.90  7 23 9 618 15001 4434 83% 10 5684 885 33%
c B  0.90  7 23 9 619 15007 4440 83% 10 5684 885 33%
c -  0.97  6 22 10 687 16513 3789 81% 10 5684 885 33%
c -  1.12  7 21 11 902 19814 4418 81% 10 5684 885 33%
c W  1.18  7 21 11 908 21009 5527 82% 10 5684 885 33%
c -  1.29  7 20 12 1091 23415 5167 82% 10 5684 885 33%
c -  1.49  7 20 13 1364 27317 5766 82% 10 5684 885 33%
c F  1.52  7 20 13 1428 28013 6397 82% 10 5684 885 33%
c 
c  seconds  reductions     redundant  irredundant
c         MB     restarts         trail     variables
c          level      conflicts       glue      remaining
c 
c p  1.61  7 20 13 1549 30001 8213 81% 10 5684 885 33%
c s  1.62  7 20 13 1554 30048 8244 81% 10 5684 885 33%
c w  1.64  7 20 13 1554 30048 8241 81% 10 5684 885 33%
c s  1.65  7 20 13 1554 30048 8241 81% 10 5684 885 33%
c ^  1.65  7 20 13 1554 30048 8241 81% 10 5684 885 33%
c }  1.70  7 20 13 1634 31001 9121 81% 10 5684 885 33%
c [  1.70  7 23 13 1634 31001 9121 128% 17 5684 885 33%
c -  1.73  7 24 14 1634 31518 6421 126% 18 5684 885 33%
c B  1.98  7 29 14 1637 36015 10450 114% 20 5684 885 33%
c -  1.99  8 29 15 1637 36019 6620 114% 20 5684 885 33%
c -  2.29  8 35 16 1640 40821 6695 108% 23 5684 885 33%
c W  2.57  8 36 16 1641 45018 10658 105% 23 5684 885 33%
c -  2.63  8 37 17 1642 45924 7219 104% 23 5684 885 33%
c p  2.89  8 37 17 1642 50003 10861 102% 24 5684 885 33%
c -  2.98  8 38 18 1642 51324 7490 101% 25 5684 885 33%
c s  3.00  8 38 18 1642 51517 7641 101% 25 5684 885 33%
c s  3.02  8 38 18 1642 51517 7639 101% 25 5684 885 33%
c ^  3.02  8 38 18 1642 51517 7639 101% 25 5684 885 33%
c O  3.25  8 38 18 1643 55019 10559 100% 25 5684 885 33%
c -  3.36  8 37 19 1645 57026 7613 99% 25 5684 885 33%
c 
c  seconds  reductions      redundant  irredundant
c         MB     restarts          trail     variables
c          level      conflicts        glue      remaining
c 
c ]  3.66  8 34 19 1649 63001 11661 97% 23 5684 885 33%
c {  3.66  8 20 19 1649 63001 11661 81% 10 5684 885 33%
c -  3.67  8 20 20 1656 63026 6867 81% 10 5684 885 33%
c B  3.82  8 20 20 1855 66021 9656 82% 10 5684 885 33%
c -  4.00  8 20 21 2174 69326 8529 81% 10 5684 885 33%
c p  4.29  8 20 21 2604 75003 13674 81% 10 5684 885 33%
c -  4.34  9 20 22 2608 75927 9733 81% 10 5684 885 33%
c W  4.47  9 20 22 2728 78023 11640 81% 10 5684 885 33%
c s  4.50  9 20 22 2760 78349 11921 81% 10 5684 885 33%
c w  4.52  9 20 22 2760 78349 11920 81% 10 5684 885 33%
c s  4.54  9 20 22 2760 78349 11917 81% 10 5684 885 33%
c ^  4.54  9 20 22 2760 78349 11917 81% 10 5684 885 33%
c -  4.80  9 20 23 3102 82828 10895 81% 10 5684 885 33%
c -  5.17  9 19 24 3489 90028 11331 79% 10 5684 885 33%
c #  5.22  9 19 24 3499 91024 12243 80% 10 5684 885 33%
c -  5.58  9 19 25 3965 97529 12351 80% 10 5684 885 33%
c p  6.01  9 19 25 4626 105003 19321 81% 10 5684 885 33%
c B  6.01  9 19 25 4627 105025 19343 81% 10 5684 885 33%
c -  6.03 10 19 26 4644 105331 12875 81% 10 5684 885 33%
c s  6.33 10 19 26 5077 110550 17542 81% 10 5684 885 33%
c 
c  seconds  reductions       redundant  irredundant
c         MB     restarts           trail     variables
c          level      conflicts         glue      remaining
c 
c w  6.36 10 19 26 5077 110550 17541 81% 10 5684 885 33%
c e  6.37 10 19 26 5077 110550 4089 81% 10 8120 567 21%
c s  6.38 10 19 26 5077 110550 4089 81% 10 8120 567 21%
c ^  6.39 10 19 26 5077 110550 4089 81% 10 8120 567 21%
c -  6.53 10 19 27 5305 113431 5330 79% 10 8120 567 21%
c W  6.92 10 19 27 5958 120026 11417 81% 10 8120 567 21%
c -  7.02 10 19 28 6050 121833 10503 81% 10 8120 567 21%
c }  7.30 10 20 28 6539 127003 15322 82% 10 8120 567 21%
c [  7.30 10 34 28 6539 127003 15322 151% 23 8120 567 21%
c -  7.48 11 32 29 6539 130533 11845 145% 22 8120 567 21%
c B  7.77 11 30 29 6544 136028 15594 137% 21 8120 567 21%
c -  7.97 10 30 30 6546 139533 11733 133% 21 8120 567 21%
c p  8.01 10 30 30 6546 140003 12164 133% 21 8120 567 21%
c -  8.50 11 28 31 6547 148834 11419 125% 20 8120 567 21%
c W  8.79 11 28 31 6548 153029 14192 121% 20 8120 567 21%
c -  9.14 12 30 32 6548 158434 12371 118% 20 8120 567 21%
c s  9.58 12 32 32 6548 164315 17795 115% 20 8120 567 21%
c w  9.61 12 32 32 6548 164315 17791 115% 20 8120 567 21%
c s  9.64 12 32 32 6548 164315 17789 115% 20 8120 567 21%
c -  9.94 12 32 33 6549 168334 14200 113% 21 8120 567 21%
c 
c  seconds  reductions       redundant   irredundant
c         MB     restarts           trail      variables
c          level      conflicts          glue      remaining
c 
c I 10.12 12 32 33 6551 171030 16343 112% 21 8120 567 21%
c - 10.61 12 31 34 6555 178535 13910 110% 20 8120 567 21%
c p 10.71 12 31 34 6555 180003 15163 109% 20 8120 567 21%
c - 11.32 10 29 35 6562 189036 13792 107% 20 8120 567 21%
c B 11.38 10 29 35 6562 190031 14637 106% 20 8120 567 21%
c - 11.94 12 32 36 6563 199836 14857 104% 20 8120 567 21%
c W 12.69 12 31 36 6570 210034 23724 101% 20 8120 567 21%
c - 12.77 14 31 37 6570 210936 15145 101% 20 8120 567 21%
c - 13.52 14 30 38 6577 222336 15414 99% 20 8120 567 21%
c p 13.69 14 30 38 6577 225004 17562 99% 20 8120 567 21%
c O 14.08 14 30 38 6578 231037 22480 98% 20 8120 567 21%
c - 14.29 14 30 39 6578 234037 15748 97% 20 8120 567 21%
c - 15.03 14 29 40 6579 246037 15817 95% 19 8120 567 21%
c B 15.46 14 28 40 6580 253038 21169 95% 19 8120 567 21%
c ] 15.58 14 28 40 6580 255004 22850 94% 19 8120 567 21%
c { 15.58 14 20 40 6580 255004 22850 82% 10 8120 567 21%
c - 15.80 14 20 41 6813 258337 17343 82% 10 8120 567 21%
c - 16.54 14 19 42 7572 270940 18209 81% 10 8120 567 21%
c p 16.78 14 19 42 7711 275004 21897 81% 10 8120 567 21%
c F 16.83 14 19 42 7732 276039 22845 82% 10 8120 567 21%
c 
c  seconds  reductions       redundant  irredundant
c         MB     restarts           trail     variables
c          level      conflicts         glue      remaining
c 
c - 17.34 14 19 43 8306 283841 19849 81% 10 8120 567 21%
c - 18.25 15 19 44 9347 297043 21245 81% 10 8120 567 21%
c B 18.42 15 19 44 9488 300043 24000 81% 10 8120 567 21%
c - 19.19 17 19 45 10340 310544 22270 81% 10 8120 567 21%
c - 20.15 17 19 46 11358 324345 23489 81% 10 8120 567 21%
c W 20.29 17 19 46 11432 325044 24147 81% 10 8120 567 21%
c p 20.62 17 19 46 11684 330004 28370 81% 10 8120 561 21%
c s 20.66 17 19 46 11684 330004 28321 81% 10 8120 561 21%
c v 20.70 17 19 46 11684 330004 28321 81% 10 8060 561 21%
c w 20.73 17 19 46 11684 330004 28310 81% 10 8060 561 21%
c s 20.78 17 19 46 11684 330004 28306 81% 10 8030 561 21%
c - 21.45 17 19 47 12357 338446 24095 81% 10 8030 561 21%
c # 22.34 17 19 47 13276 351047 35768 82% 10 8030 561 21%
c - 22.47 17 19 48 13371 352847 25028 82% 10 8030 561 21%
c - 23.50 17 19 49 14192 367547 25874 82% 10 8030 561 21%
c B 24.28 17 19 49 14934 378050 35298 82% 10 8030 561 21%
c - 24.70 17 19 50 15404 382548 26651 82% 10 8030 561 21%
c p 25.25 17 19 50 15950 390005 33502 82% 10 8030 561 21%
c - 25.91 14 19 51 16536 397848 27574 82% 10 8030 561 21%
c s 26.05 14 19 51 16615 399112 28707 82% 10 8030 561 21%
c 
c  seconds  reductions        redundant  irredundant
c         MB      restarts           trail     variables
c          level       conflicts         glue      remaining
c 
c w 26.09 14 19 51 16615 399112 28699 82% 10 8030 561 21%
c s 26.15 14 19 51 16615 399112 28697 82% 10 8030 561 21%
c W 26.79 14 19 51 17203 406055 34871 81% 10 8030 561 21%
c - 27.34 13 19 52 17677 413450 27595 81% 10 8030 561 21%
c - 28.53 15 19 53 18933 429351 28620 80% 10 8030 561 21%
c F 28.95 15 19 53 19406 435056 33793 80% 10 8030 561 21%
c - 29.77 18 19 54 20130 445552 29511 81% 10 8030 561 21%
c p 30.53 18 19 54 20988 455005 38037 81% 10 8030 561 21%
c - 31.09 16 19 55 21424 462054 30219 81% 10 8030 561 21%
c B 31.28 16 19 55 21531 465057 32917 81% 10 8030 561 21%
c - 32.40 18 19 56 22445 478861 30701 81% 10 8030 561 21%
c - 33.81 16 19 57 23891 495961 31966 81% 10 8030 561 21%
c W 33.95 16 19 57 23891 496058 32052 81% 10 8030 561 21%
c } 35.12 16 18 57 24980 511005 45337 81% 10 8030 561 21%
c [ 35.12 16 28 57 24980 511005 45337 94% 19 8030 561 21%
c - 35.29 18 28 58 24980 513362 32144 94% 19 8030 561 21%
c p 36.07 18 26 58 24980 525005 40911 93% 18 8030 561 21%
c W 36.47 18 27 58 24980 528059 43806 93% 19 8030 561 21%
c - 36.72 16 28 59 24980 531062 30830 93% 19 8030 561 21%
c - 38.24 19 28 60 24987 549064 29874 91% 19 8030 561 21%
c 
c  seconds  reductions        redundant  irredundant
c         MB      restarts           trail     variables
c          level       conflicts         glue      remaining
c 
c I 39.26 19 28 60 24994 561063 40177 91% 19 8030 561 21%
c - 39.81 19 28 61 24995 567365 30608 91% 19 8030 561 21%
c - 41.61 20 29 62 25003 585966 31894 91% 19 8030 561 21%
c B 42.47 20 30 62 25009 595066 39790 90% 19 8030 561 21%
c p 42.90 20 30 62 25010 600006 44290 90% 19 8030 561 21%
c - 43.32 16 30 63 25010 604866 30672 90% 20 8030 561 21%
c - 44.85 18 29 64 25012 624067 29762 90% 19 8030 561 21%
c W 45.51 18 28 64 25017 630067 34622 89% 19 8030 561 21%
c - 46.70 18 27 65 25024 643567 29718 89% 19 8030 561 21%
c - 48.42 18 26 66 25032 663367 29213 88% 18 8030 561 21%
c O 48.61 18 25 66 25033 666070 31301 88% 18 8030 561 21%
c p 49.57 18 24 66 25040 680006 40835 88% 18 8030 561 21%
c - 49.84 18 24 67 25041 683468 27737 88% 17 8030 561 21%
c B 51.24 18 23 67 25042 703073 40318 88% 17 8030 561 21%
c - 51.33 18 23 68 25042 703869 26731 88% 17 8030 561 21%
c - 52.89 19 22 69 25043 724569 28046 88% 17 8030 561 21%
c W 54.44 19 22 69 25044 741074 40664 88% 17 8030 561 21%
c - 54.92 19 22 70 25044 745569 28914 88% 17 8030 561 21%
c p 56.74 19 22 70 25044 765006 43378 88% 17 8030 561 21%
c - 56.97 19 22 71 25044 766869 30595 88% 17 8030 561 21%
c 
c  seconds  reductions        redundant  irredundant
c         MB      restarts           trail     variables
c          level       conflicts         glue      remaining
c 
c I 58.07 19 21 71 25044 780076 40653 88% 17 8030 561 21%
c - 58.76 21 23 72 25044 788470 33717 88% 17 8030 561 21%
c s 58.85 21 23 72 25044 788470 33598 88% 17 8030 561 21%
c w 58.95 21 23 72 25044 788470 33580 88% 17 8030 561 21%
c - 60.95 21 26 73 25048 810370 36445 88% 18 8030 561 21%
c B 62.18 21 26 73 25053 820079 44422 87% 19 8030 561 21%
c - 63.74 21 26 74 25059 832570 36831 88% 19 8030 561 21%
c p 66.27 21 26 74 25069 855007 56402 87% 19 8030 561 21%
c - 66.34 21 26 75 25069 855071 36772 87% 19 8030 561 21%
c W 67.15 21 26 75 25073 861080 41411 87% 19 8030 561 21%
c - 68.79 21 26 76 25075 877873 36482 87% 19 8030 561 21%
c - 71.05 21 25 77 25082 900973 34968 87% 19 8030 561 21%
c O 71.24 21 25 77 25084 903081 36546 87% 19 8030 561 21%
c - 73.15 21 25 78 25093 924373 33060 87% 18 8030 561 21%
c B 75.11 21 24 78 25104 946084 48058 87% 18 8030 561 21%
c - 75.31 21 24 79 25105 948074 33482 87% 18 8030 561 21%
c p 75.47 21 24 79 25105 950007 34983 87% 18 8030 561 21%
c - 77.27 21 23 80 25107 972074 34138 87% 18 8030 561 21%
c W 79.15 21 23 80 25107 990086 49262 87% 18 8030 561 21%
c - 79.83 21 23 81 25107 996374 36392 87% 18 8030 561 21%
c 
c  seconds  reductions         redundant  irredundant
c         MB      restarts            trail     variables
c          level        conflicts         glue      remaining
c 
c - 82.43 21 22 82 25117 1020975 36125 87% 18 8030 561 21%
c ] 82.61 21 22 82 25119 1023005 37629 87% 18 8030 561 21%
c { 82.61 21 18 82 25119 1023005 37629 81% 10 8030 561 21%
c # 83.60 21 18 82 26089 1035089 48705 81% 10 8030 561 21%
c - 84.66 23 18 83 26964 1045875 40704 82% 10 8030 561 21%
c p 85.06 23 18 83 27268 1050007 44399 82% 10 8030 561 21%
c - 87.06 23 18 84 28589 1071075 42588 80% 10 8030 561 21%
c B 87.96 23 18 84 29338 1081090 51566 80% 10 8030 561 21%
c - 89.54 23 18 85 30347 1096578 45012 80% 10 8030 561 21%
c - 92.13 24 18 86 32203 1122378 46742 79% 10 8030 561 21%
c W 92.90 24 18 86 32665 1128092 52011 79% 10 8030 561 21%
c - 95.31 24 18 87 34641 1148479 48465 79% 10 8030 561 21%
c p 96.00 24 18 87 35138 1155009 54532 80% 10 8030 560 21%
c s 96.18 24 18 87 35138 1155009 54310 80% 10 8025 560 21%
c - 98.49 24 18 88 36718 1174879 50283 80% 10 8025 560 21%
c F 98.63 24 18 88 36855 1176094 51377 80% 10 8025 560 21%
c - 101.41 24 18 89 38762 1201579 49733 80% 10 8025 560 21%
c B 103.76 24 18 89 40361 1225095 70438 81% 10 8025 560 21%
c - 104.25 24 18 90 40584 1228579 50402 81% 10 8025 560 21%
c s 104.39 24 18 90 40584 1228579 50331 81% 10 8020 560 21%
c 
c  seconds   reductions         redundant  irredundant
c          MB      restarts            trail     variables
c           level        conflicts         glue      remaining
c 
c w 104.52 24 18 90 40584 1228579 50327 81% 10 8020 560 21%
c s 105.82 24 18 90 41534 1239515 59995 81% 10 8020 560 21%
c - 107.66 27 18 91 42555 1255879 52172 82% 10 8020 560 21%
c p 108.58 27 18 91 43102 1265010 60389 82% 10 8020 560 21%
c W 110.06 27 18 91 43851 1275096 69153 82% 10 8020 560 21%
c - 111.04 27 18 92 44336 1283481 52191 82% 10 8020 560 21%
c - 114.35 27 18 93 46751 1311381 53749 82% 10 8020 560 21%
c # 115.95 27 18 93 47861 1326100 66999 82% 10 8020 560 21%
c - 117.62 27 18 94 48646 1339581 53978 83% 10 8020 560 21%
c - 120.98 31 18 95 50705 1368082 55575 83% 10 8020 560 21%
c B 122.12 31 18 95 51559 1378101 64588 83% 10 8020 560 21%
c p 122.45 31 18 95 51753 1380011 66559 83% 10 8020 558 21%
c s 122.64 31 18 95 51753 1380011 66470 83% 10 8020 558 21%
c v 122.68 31 18 95 51753 1380011 66470 83% 10 7998 558 21%
c w 122.77 31 18 95 51753 1380011 66466 83% 10 7998 558 21%
c s 122.97 31 18 95 51753 1380011 66461 83% 10 7988 558 21%
c - 124.92 31 18 96 52609 1396882 57011 83% 10 7988 558 21%
c - 128.42 31 18 97 54625 1425983 57614 83% 10 7988 558 21%
c W 129.28 31 18 97 54964 1431104 62268 83% 10 7988 558 21%
c - 132.03 21 18 98 56307 1455384 58204 81% 10 7988 558 21%
c 
c  seconds   reductions         redundant  irredundant
c          MB      restarts            trail     variables
c           level        conflicts         glue      remaining
c 
c s 134.63 21 17 98 57454 1479841 79258 81% 10 7988 558 21%
c w 134.76 21 17 98 57454 1479841 79255 81% 10 7988 558 21%
c s 134.99 21 17 98 57454 1479841 79247 81% 10 7988 558 21%
c - 135.70 24 17 99 57734 1485084 58773 81% 10 7988 558 21%
c F 135.70 24 17 99 57738 1485106 58793 81% 10 7988 558 21%
c p 137.41 24 17 99 58889 1500011 71940 81% 10 7988 558 21%
c - 139.39 29 17 100 59940 1515084 59477 82% 10 7988 558 21%
c B 142.17 29 17 100 61471 1540109 81939 82% 10 7988 558 21%
c - 143.06 29 17 101 62034 1545386 60905 82% 10 7988 558 21%
c - 146.61 29 17 102 63676 1575987 61440 82% 10 7988 558 21%
c W 149.31 29 17 102 64804 1596111 79485 82% 10 7988 558 21%
c - 150.71 21 17 103 65409 1606887 62569 82% 10 7988 558 21%
c p 153.20 21 17 103 67114 1625011 78815 82% 10 7988 557 21%
c s 153.46 22 17 103 67114 1625011 78767 82% 10 7988 557 21%
c v 153.51 22 17 103 67114 1625011 78767 82% 10 7977 557 21%
c w 153.62 22 17 103 67114 1625011 78757 82% 10 7977 557 21%
c s 153.88 22 17 103 67114 1625011 78753 82% 10 7972 557 21%
c - 155.49 22 17 104 67677 1638088 63776 82% 10 7972 557 21%
c # 157.28 22 17 104 68843 1653113 76529 82% 10 7972 557 21%
c - 159.76 23 17 105 70228 1669589 64359 82% 10 7972 557 21%
c 
c  seconds    reductions         redundant  irredundant
c          MB       restarts            trail     variables
c           level         conflicts         glue      remaining
c 
c - 163.98 23 17 106 72554 1701392 65793 82% 10 7972 557 21%
c B 165.21 23 17 106 73373 1711114 74221 82% 10 7972 557 21%
c - 168.27 23 17 107 74848 1733492 66381 82% 10 7972 557 21%
c s 169.08 23 17 107 74921 1740188 71598 83% 10 7972 557 21%
c w 169.21 23 17 107 74921 1740188 71597 83% 10 7972 557 21%
c s 169.49 23 17 107 74921 1740188 71594 83% 10 7972 557 21%
c p 171.65 23 17 107 76304 1755012 84783 83% 10 7972 557 21%
c - 173.11 23 17 108 76856 1765892 66681 83% 10 7972 557 21%
c } 173.90 23 17 108 77267 1770114 70495 83% 10 7972 557 21%
c 1 173.90 23 17 108 77267 1770114 70495 83% 10 7972 557 21%
c 
c --- [ result ] -------------------------------------------------------------
c 
s SATISFIABLE
v -1 -2 -3 -4 -5 -6 -7 8 -9 10 -11 -12 -13 -14 -15 -16 -17 -18 -19 -20 -21 -22
v -23 24 -25 26 -27 28 -29 -30 31 -32 -33 -34 -35 -36 37 38 -39 -40 -41 -42
v -43 -44 -45 -46 47 -48 -49 -50 -51 -52 -53 54 55 56 -57 -58 59 -60 -61 62 63
v -64 -65 -66 -67 -68 -69 -70 -71 -72 -73 -74 -75 76 -77 -78 -79 -80 -81 82
v -83 -84 85 86 -87 -88 -89 -90 -91 -92 -93 -94 -95 -96 -97 -98 -99 -100 -101
v -102 -103 -104 -105 -106 -107 -108 109 -110 -111 -112 113 -114 -115 -116
v -117 -118 119 120 121 -122 -123 -124 -125 -126 -127 -128 129 -130 -131 -132
v -133 -134 -135 -136 -137 -138 -139 140 -141 -142 -143 144 -145 -146 -147 148
v -149 -150 -151 -152 -153 -154 -155 156 -157 -158 -159 -160 -161 -162 -163
v -164 -165 -166 -167 -168 -169 -170 -171 -172 173 174 -175 -176 -177 -178
v -179 180 -181 182 -183 -184 -185 -186 -187 -188 -189 -190 -191 -192 -193
v -194 195 -196 -197 -198 -199 -200 -201 -202 -203 -204 -205 -206 -207 -208
v -209 -210 211 -212 -213 214 -215 216 -217 -218 -219 -220 -221 -222 223 -224
v -225 226 -227 -228 -229 -230 -231 232 -233 -234 -235 -236 -237 -238 -239 240
v 241 -242 -243 -244 -245 246 -247 -248 -249 -250 -251 252 -253 -254 -255 -256
v 257 258 -259 260 -261 -262 -263 -264 -265 -266 267 -268 -269 270 271 -272
v 273 274 275 -276 277 278 -279 280 281 -282 283 284 -285 286 -287 -288 289
v 290 -291 292 -293 294 295 -296 297 298 -299 300 -301 -302 -303 -304 305 -306
v -307 -308 -309 310 -311 -312 -313 -314 -315 -316 317 318 319 -320 321 -322
v -323 -324 -325 326 327 328 329 330 331 332 333 334 335 336 337 338 339 340
v 341 342 343 344 345 346 347 348 349 350 351 352 353 354 355 356 357 358 359
v 360 361 362 363 364 365 366 367 368 369 370 371 372 373 374 375 376 377 378
v 379 380 381 382 383 384 385 386 387 388 389 390 391 392 393 394 395 396 397
v 398 -399 -400 -401 -402 -403 -404 405 406 407 408 409 410 411 412 413 414
v 415 416 417 418 419 420 421 422 423 424 425 426 427 428 429 430 431 432 433
v 434 435 436 437 438 439 440 441 442 443 444 445 446 447 448 449 450 451 452
v 453 454 455 456 457 458 459 460 461 462 463 464 465 466 467 468 469 470 471
v 472 -473 -474 -475 -476 -477 -478 -479 480 481 482 483 484 485 486 487 488
v 489 490 491 492 493 494 495 496 497 498 499 500 501 502 503 504 505 506 507
v 508 509 510 511 512 513 514 515 516 517 518 519 520 521 522 523 524 525 526
v 527 528 529 530 531 532 533 534 535 536 537 538 539 540 541 542 543 544 545
v 546 -547 -548 -549 -550 -551 -552 -553 -554 -555 556 557 558 559 560 561 562
v 563 564 565 566 567 568 569 570 571 572 573 574 575 576 577 578 579 580 581
v 582 583 584 585 586 587 588 589 590 591 592 593 594 595 596 597 598 599 600
v 601 602 603 604 605 606 607 608 609 610 611 612 613 614 615 616 617 618 619
v 620 -621 -622 -623 -624 -625 -626 -627 -628 -629 -630 -631 -632 -633 -634
v -635 -636 637 638 639 640 641 642 643 644 645 646 647 648 649 650 651 652
v 653 654 655 656 657 658 659 660 661 662 663 664 665 666 667 668 669 670 671
v 672 673 674 675 676 677 678 679 680 681 682 683 684 685 686 687 688 689 690
v 691 692 693 694 -695 -696 -697 -698 -699 -700 -701 -702 -703 -704 -705 -706
v -707 -708 -709 -710 -711 -712 -713 714 715 716 717 718 719 720 721 722 723
v 724 725 726 727 728 729 730 731 732 733 734 735 736 737 738 739 740 741 742
v 743 744 745 746 747 748 749 750 751 752 753 754 755 756 757 758 759 760 761
v 762 763 764 765 766 767 768 -769 -770 -771 -772 -773 -774 -775 -776 -777
v -778 -779 -780 -781 -782 -783 -784 -785 -786 -787 -788 789 790 791 792 793
v 794 795 796 797 798 799 800 801 802 803 804 805 806 807 808 809 810 811 812
v 813 814 815 816 817 818 819 820 821 822 823 824 825 826 827 828 829 830 831
v 832 833 834 835 836 837 838 839 840 841 842 -843 -844 -845 -846 -847 -848
v -849 -850 -851 -852 -853 -854 -855 -856 -857 -858 -859 -860 -861 -862 -863
v -864 865 866 867 868 869 870 871 872 873 874 875 876 877 878 879 880 881 882
v 883 884 885 886 887 888 889 890 891 892 893 894 895 896 897 898 899 900 901
v 902 903 904 905 906 907 908 909 910 911 912 913 914 915 916 -917 -918 -919
v -920 -921 -922 -923 -924 -925 -926 -927 -928 -929 -930 -931 -932 -933 -934
v -935 -936 -937 -938 -939 940 941 942 943 944 945 946 947 948 949 950 951 952
v 953 954 955 956 957 958 959 960 961 962 963 964 965 966 967 968 969 970 971
v 972 973 974 975 976 977 978 979 980 981 982 983 984 985 986 987 988 989 990
v -991 -992 -993 -994 -995 -996 -997 -998 -999 -1000 -1001 -1002 -1003 -1004
v -1005 -1006 -1007 -1008 -1009 -1010 -1011 -1012 -1013 -1014 1015 1016 1017
v 1018 1019 1020 1021 1022 1023 1024 1025 1026 1027 1028 1029 1030 1031 1032
v 1033 1034 1035 1036 1037 1038 1039 1040 1041 1042 1043 1044 1045 1046 1047
v 1048 1049 1050 1051 1052 1053 1054 1055 1056 1057 1058 1059 1060 1061 1062
v 1063 1064 -1065 -1066 -1067 -1068 -1069 -1070 -1071 -1072 -1073 -1074 -1075
v -1076 -1077 -1078 -1079 -1080 -1081 -1082 -1083 -1084 -1085 -1086 -1087
v -1088 -1089 -1090 1091 1092 1093 1094 1095 1096 1097 1098 1099 1100 1101
v 1102 1103 1104 1105 1106 1107 1108 1109 1110 1111 1112 1113 1114 1115 1116
v 1117 1118 1119 1120 1121 1122 1123 1124 1125 1126 1127 1128 1129 1130 1131
v 1132 1133 1134 1135 1136 1137 1138 -1139 -1140 -1141 -1142 -1143 -1144 -1145
v -1146 -1147 -1148 -1149 -1150 -1151 -1152 -1153 -1154 -1155 -1156 -1157
v -1158 -1159 -1160 -1161 -1162 -1163 -1164 -1165 1166 1167 1168 1169 1170
v 1171 1172 1173 1174 1175 1176 1177 1178 1179 1180 1181 1182 1183 1184 1185
v 1186 1187 1188 1189 1190 1191 1192 1193 1194 1195 1196 1197 1198 1199 1200
v 1201 1202 1203 1204 1205 1206 1207 1208 1209 1210 1211 1212 -1213 -1214
v -1215 -1216 -1217 -1218 -1219 -1220 -1221 -1222 -1223 -1224 -1225 -1226
v -1227 -1228 -1229 -1230 -1231 -1232 -1233 -1234 -1235 -1236 -1237 -1238
v -1239 -1240 -1241 1242 1243 1244 1245 1246 1247 1248 1249 1250 1251 1252
v 1253 1254 1255 1256 1257 1258 1259 1260 1261 1262 1263 1264 1265 1266 1267
v 1268 1269 1270 1271 1272 1273 1274 1275 1276 1277 1278 1279 1280 1281 1282
v 1283 1284 1285 1286 -1287 -1288 -1289 -1290 -1291 -1292 -1293 -1294 -1295
v -1296 -1297 -1298 -1299 -1300 -1301 -1302 -1303 -1304 -1305 -1306 -1307
v -1308 -1309 -1310 -1311 -1312 -1313 -1314 -1315 -1316 1317 1318 1319 1320
v 1321 1322 1323 1324 1325 1326 1327 1328 1329 1330 1331 1332 1333 1334 1335
v 1336 1337 1338 1339 1340 1341 1342 1343 1344 1345 1346 1347 1348 1349 1350
v 1351 1352 1353 1354 1355 1356 1357 1358 1359 1360 -1361 -1362 -1363 -1364
v -1365 -1366 -1367 -1368 -1369 -1370 -1371 -1372 -1373 -1374 -1375 -1376
v -1377 -1378 -1379 -1380 -1381 -1382 -1383 -1384 -1385 -1386 -1387 -1388
v -1389 -1390 -1391 -1392 1393 1394 1395 1396 1397 1398 1399 1400 1401 1402
v 1403 1404 1405 1406 1407 1408 1409 1410 1411 1412 1413 1414 1415 1416 1417
v 1418 1419 1420 1421 1422 1423 1424 1425 1426 1427 1428 1429 1430 1431 1432
v 1433 1434 -1435 -1436 -1437 -1438 -1439 -1440 -1441 -1442 -1443 -1444 -1445
v -1446 -1447 -1448 -1449 -1450 -1451 -1452 -1453 -1454 -1455 -1456 -1457
v -1458 -1459 -1460 -1461 -1462 -1463 -1464 -1465 -1466 -1467 1468 1469 1470
v 1471 1472 1473 1474 1475 1476 1477 1478 1479 1480 1481 1482 1483 1484 1485
v 1486 1487 1488 1489 1490 1491 1492 1493 1494 1495 1496 1497 1498 1499 1500
v 1501 1502 1503 1504 1505 1506 1507 1508 -1509 -1510 -1511 -1512 -1513 -1514
v -1515 -1516 -1517 -1518 -1519 -1520 -1521 -1522 -1523 -1524 -1525 -1526
v -1527 -1528 -1529 -1530 -1531 -1532 -1533 -1534 -1535 -1536 -1537 -1538
v -1539 -1540 -1541 -1542 -1543 1544 1545 1546 1547 1548 1549 1550 1551 1552
v 1553 1554 1555 1556 1557 1558 1559 1560 1561 1562 1563 1564 1565 1566 1567
v 1568 1569 1570 1571 1572 1573 1574 1575 1576 1577 1578 1579 1580 1581 1582
v -1583 -1584 -1585 -1586 -1587 -1588 -1589 -1590 -1591 -1592 -1593 -1594
v -1595 -1596 -1597 -1598 -1599 -1600 -1601 -1602 -1603 -1604 -1605 -1606
v -1607 -1608 -1609 -1610 -1611 -1612 -1613 -1614 -1615 -1616 -1617 -1618
v -1619 -1620 1621 1622 1623 1624 1625 1626 1627 1628 1629 1630 1631 1632 1633
v 1634 1635 1636 1637 1638 1639 1640 1641 1642 1643 1644 1645 1646 1647 1648
v 1649 1650 1651 1652 1653 1654 1655 1656 -1657 -1658 -1659 -1660 -1661 -1662
v -1663 -1664 -1665 -1666 -1667 -1668 -1669 -1670 -1671 -1672 -1673 -1674
v -1675 -1676 -1677 -1678 -1679 -1680 -1681 -1682 -1683 -1684 -1685 -1686
v -1687 -1688 -1689 -1690 -1691 -1692 -1693 -1694 -1695 1696 1697 1698 1699
v 1700 1701 1702 1703 1704 1705 1706 1707 1708 1709 1710 1711 1712 1713 1714
v 1715 1716 1717 1718 1719 1720 1721 1722 1723 1724 1725 1726 1727 1728 1729
v 1730 -1731 -1732 -1733 -1734 -1735 -1736 -1737 -1738 -1739 -1740 -1741 -1742
v -1743 -1744 -1745 -1746 -1747 -1748 -1749 -1750 -1751 -1752 -1753 -1754
v -1755 -1756 -1757 -1758 -1759 -1760 -1761 -1762 -1763 -1764 -1765 -1766
v -1767 -1768 -1769 -1770 -1771 1772 1773 1774 1775 1776 1777 1778 1779 1780
v 1781 1782 1783 1784 1785 1786 1787 1788 1789 1790 1791 1792 1793 1794 1795
v 1796 1797 1798 1799 1800 1801 1802 1803 1804 -1805 -1806 -1807 -1808 -1809
v -1810 -1811 -1812 -1813 -1814 -1815 -1816 -1817 -1818 -1819 -1820 -1821
v -1822 -1823 -1824 -1825 -1826 -1827 -1828 -1829 -1830 -1831 -1832 -1833
v -1834 -1835 -1836 -1837 -1838 -1839 -1840 -1841 -1842 -1843 -1844 -1845
v -1846 -1847 1848 1849 1850 1851 1852 1853 1854 1855 1856 1857 1858 1859 1860
v 1861 1862 1863 1864 1865 1866 1867 1868 1869 1870 1871 1872 1873 1874 1875
v 1876 1877 1878 -1879 -1880 -1881 -1882 -1883 -1884 -1885 -1886 -1887 -1888
v -1889 -1890 -1891 -1892 -1893 -1894 -1895 -1896 -1897 -1898 -1899 -1900
v -1901 -1902 -1903 -1904 -1905 -1906 -1907 -1908 -1909 -1910 -1911 -1912
v -1913 -1914 -1915 -1916 -1917 -1918 -1919 -1920 -1921 -1922 1923 1924 1925
v 1926 1927 1928 1929 1930 1931 1932 1933 1934 1935 1936 1937 1938 1939 1940
v 1941 1942 1943 1944 1945 1946 1947 1948 1949 1950 1951 1952 -1953 -1954
v -1955 -1956 -1957 -1958 -1959 -1960 -1961 -1962 -1963 -1964 -1965 -1966
v -1967 -1968 -1969 -1970 -1971 -1972 -1973 -1974 -1975 -1976 -1977 -1978
v -1979 -1980 -1981 -1982 -1983 -1984 -1985 -1986 -1987 -1988 -1989 -1990
v -1991 -1992 -1993 -1994 -1995 -1996 -1997 -1998 1999 2000 2001 2002 2003
v 2004 2005 2006 2007 2008 2009 2010 2011 2012 2013 2014 2015 2016 2017 2018
v 2019 2020 2021 2022 2023 2024 2025 2026 -2027 -2028 -2029 -2030 -2031 -2032
v -2033 -2034 -2035 -2036 -2037 -2038 -2039 -2040 -2041 -2042 -2043 -2044
v -2045 -2046 -2047 -2048 -2049 -2050 -2051 -2052 -2053 -2054 -2055 -2056
v -2057 -2058 -2059 -2060 -2061 -2062 -2063 -2064 -2065 -2066 -2067 -2068
v -2069 -2070 -2071 -2072 -2073 2074 2075 2076 2077 2078 2079 2080 2081 2082
v 2083 2084 2085 2086 2087 2088 2089 2090 2091 2092 2093 2094 2095 2096 2097
v 2098 2099 2100 -2101 -2102 -2103 -2104 -2105 -2106 -2107 -2108 -2109 -2110
v -2111 -2112 -2113 -2114 -2115 -2116 -2117 -2118 -2119 -2120 -2121 -2122
v -2123 -2124 -2125 -2126 -2127 -2128 -2129 -2130 -2131 -2132 -2133 -2134
v -2135 -2136 -2137 -2138 -2139 -2140 -2141 -2142 -2143 -2144 -2145 -2146
v -2147 -2148 -2149 2150 2151 2152 2153 2154 2155 2156 2157 2158 2159 2160
v 2161 2162 2163 2164 2165 2166 2167 2168 2169 2170 2171 2172 2173 2174 -2175
v -2176 -2177 -2178 -2179 -2180 -2181 -2182 -2183 -2184 -2185 -2186 -2187
v -2188 -2189 -2190 -2191 -2192 -2193 -2194 -2195 -2196 -2197 -2198 -2199
v -2200 -2201 -2202 -2203 -2204 -2205 -2206 -2207 -2208 -2209 -2210 -2211
v -2212 -2213 -2214 -2215 -2216 -2217 -2218 -2219 -2220 -2221 -2222 -2223
v -2224 -2225 -2226 -2227 -2228 2229 2230 2231 2232 2233 2234 2235 2236 2237
v 2238 2239 2240 2241 2242 2243 2244 2245 2246 2247 2248 -2249 -2250 -2251
v -2252 -2253 -2254 -2255 -2256 -2257 -2258 -2259 -2260 -2261 -2262 -2263
v -2264 -2265 -2266 -2267 -2268 -2269 -2270 -2271 -2272 -2273 -2274 -2275
v -2276 -2277 -2278 -2279 -2280 -2281 -2282 -2283 -2284 -2285 -2286 -2287
v -2288 -2289 -2290 -2291 -2292 -2293 -2294 -2295 -2296 -2297 -2298 -2299
v -2300 -2301 -2302 -2303 -2304 -2305 -2306 -2307 2308 2309 2310 2311 2312
v 2313 2314 2315 2316 2317 2318 2319 2320 2321 2322 -2323 -2324 -2325 -2326
v -2327 -2328 -2329 -2330 -2331 -2332 -2333 -2334 -2335 -2336 -2337 -2338
v -2339 -2340 -2341 -2342 -2343 -2344 -2345 -2346 -2347 -2348 -2349 -2350
v -2351 -2352 -2353 -2354 -2355 -2356 -2357 -2358 -2359 -2360 -2361 -2362
v -2363 -2364 -2365 -2366 -2367 -2368 -2369 -2370 -2371 -2372 -2373 -2374
v -2375 -2376 -2377 -2378 -2379 -2380 -2381 -2382 -2383 -2384 -2385 -2386
v -2387 -2388 2389 2390 2391 2392 2393 2394 2395 2396 -2397 -2398 -2399 -2400
v -2401 -2402 -2403 -2404 -2405 -2406 -2407 -2408 -2409 -2410 -2411 -2412
v -2413 -2414 -2415 -2416 -2417 -2418 -2419 -2420 -2421 -2422 -2423 -2424
v -2425 -2426 -2427 -2428 -2429 -2430 -2431 -2432 -2433 -2434 -2435 -2436
v -2437 -2438 -2439 -2440 -2441 -2442 -2443 -2444 -2445 -2446 -2447 -2448
v -2449 -2450 -2451 -2452 -2453 -2454 -2455 -2456 -2457 -2458 -2459 -2460
v -2461 -2462 -2463 2464 2465 2466 2467 2468 2469 2470 -2471 -2472 -2473 -2474
v -2475 -2476 -2477 -2478 -2479 -2480 -2481 -2482 -2483 -2484 -2485 -2486
v -2487 -2488 -2489 -2490 -2491 -2492 -2493 -2494 -2495 -2496 -2497 -2498
v -2499 -2500 -2501 -2502 -2503 -2504 -2505 -2506 -2507 -2508 -2509 -2510
v -2511 -2512 -2513 -2514 -2515 -2516 -2517 -2518 -2519 -2520 -2521 -2522
v -2523 -2524 -2525 -2526 -2527 -2528 -2529 -2530 -2531 -2532 -2533 -2534
v -2535 -2536 -2537 -2538 2539 2540 2541 2542 2543 2544 -2545 -2546 -2547
v -2548 -2549 -2550 -2551 -2552 -2553 -2554 -2555 -2556 -2557 -2558 -2559
v -2560 -2561 -2562 -2563 -2564 -2565 -2566 -2567 -2568 -2569 -2570 -2571
v -2572 -2573 -2574 -2575 -2576 -2577 -2578 -2579 -2580 -2581 -2582 -2583
v -2584 -2585 -2586 -2587 -2588 -2589 -2590 -2591 -2592 -2593 -2594 -2595
v -2596 -2597 -2598 -2599 -2600 -2601 -2602 -2603 -2604 -2605 -2606 -2607
v -2608 -2609 -2610 -2611 -2612 -2613 -2614 2615 2616 2617 2618 -2619 -2620
v -2621 -2622 -2623 -2624 -2625 -2626 -2627 -2628 -2629 -2630 -2631 -2632
v -2633 -2634 -2635 -2636 -2637 -2638 -2639 -2640 -2641 -2642 -2643 -2644
v -2645 -2646 -2647 -2648 -2649 -2650 -2651 -2652 -2653 -2654 -2655 -2656
v -2657 -2658 -2659 -2660 -2661 -2662 -2663 -2664 -2665 -2666 -2667 -2668
v -2669 -2670 -2671 -2672 -2673 -2674 -2675 -2676 -2677 -2678 -2679 -2680
v -2681 -2682 -2683 -2684 -2685 -2686 -2687 -2688 -2689 -2690 -2691 -2692 0
c 
c --- [ run-time profiling ] -------------------------------------------------
c 
c process time taken by individual solving procedures
c (percentage relative to process time for solving)
c 
c       169.22   97.31% search
c       109.37   62.89% unstable
c        56.56   32.52% stable
c         4.68    2.69% simplify
c         3.29    1.89% walk
c         2.68    1.54% subsume
c         0.96    0.55% vivify
c         0.47    0.27% probe
c         0.14    0.08% ternary
c         0.12    0.07% elim
c         0.00    0.00% parse
c         0.00    0.00% lucky
c   =================================
c       173.90  100.00% solve
c 
c last line shows process time for solving
c (percentage relative to total process time)
c 
c --- [ statistics ] ---------------------------------------------------------
c 
c chronological:            355321        20.07 %  of conflicts
c conflicts:               1770114     10179.18    per second
c decisions:               3350260     19265.93    per second
c eliminated:                 2051        76.19 %  of all variables
c fixed:                        84         3.12 %  of all variables
c learned:                 1736934        98.13 %  per conflict
c learned_lits:           65960663       100.00 %  learned literals
c minimized:                     0         0.00 %  learned literals
c shrunken:               21465002        32.54 %  learned literals
c minishrunken:            6600470        10.01 %  learned literals
c propagations:          148817044         0.86 M  per second
c reduced:                 1427761        80.66 %  per conflict
c rephased:                     59     30001.93    interval
c restarts:                  77267        22.91    interval
c stabilizing:                   5        38.53 %  of conflicts
c subsumed:                 223727         6.37 %  of all clauses
c strengthened:              15317         0.44 %  of all clauses
c ternary:                      11         0.02 %  of resolved
c vivified:                    239         0.01 %  of all clauses
c walked:                       19     93163.89    interval
c weakened:                   8792         2.89    average size
c 
c seconds are measured in process time for solving
c 
c --- [ resources ] ----------------------------------------------------------
c 
c total process time since initialization:       173.90    seconds
c total real time since initialization:          173.94    seconds
c maximum resident set size of process:           32.99    MB
c 
c --- [ shutting down ] ------------------------------------------------------
c 
c exit 10
